Minimize
  obj: x0 + x1 + x2 + x3 + x4 + x5 + x6 + x7 + x8

Subject To
  c0: x0 + x5 + x6 = 131
  c1: x3 + x8 = 13
  c2: x0 + x2 + x3 + x4 + x5 + x8 = 146
  c3: x1 + x2 + x5 + x6 + x8 = 122
  c4: x2 + x3 + x6 + x8 = 25
  c5: x0 + x1 + x4 + x5 + x6 = 137
  c6: x0 + x1 + x2 + x4 + x6 + x7 + x8 = 46

Bounds
  x0 >= 0
  x1 >= 0
  x2 >= 0
  x3 >= 0
  x4 >= 0
  x5 >= 0
  x6 >= 0
  x7 >= 0
  x8 >= 0

Generals
  x0 x1 x2 x3 x4 x5 x6 x7 x8

End
